15
2 1 2
3 0 2
3 1 4
3 2 1
4 0 5
4 1 2
5 0 4
5 3 3
6 1 2
6 4 2
7 1 1
7 3 5
7 4 5
8 2 4
8 3 4
8 4 5
8 5 1
8 6 4
9 0 5
9 4 5
9 7 2
10 0 4
10 2 1
10 7 1
10 8 5
11 4 5
11 5 2
11 6 1
11 7 2
11 8 1
11 9 5
12 0 5
12 1 1
12 4 5
12 6 4
12 8 5
13 0 1
13 3 4
13 5 5
13 6 3
13 7 5
13 8 4
13 9 1
13 11 1
13 12 1
14 3 2
14 7 5
14 10 1
14 11 5
14 13 3
